problems/csplib-prob013/ProgressivePartyProblem-models/noch/O2/minion/model_1_1-Ian02-solution000001.solution
language Essence 1.3

letting hosts be {2, 3, 4, 5, 6}
letting sched be
        {function(1 --> 2, 2 --> 2, 3 --> 3, 4 --> 4, 5 --> 5, 6 --> 6),
         function(1 --> 3, 2 --> 2, 3 --> 3, 4 --> 4, 5 --> 5, 6 --> 6),
         function(1 --> 4, 2 --> 2, 3 --> 3, 4 --> 4, 5 --> 5, 6 --> 6),
         function(1 --> 5, 2 --> 2, 3 --> 3, 4 --> 4, 5 --> 5, 6 --> 6),
         function(1 --> 6, 2 --> 2, 3 --> 3, 4 --> 4, 5 --> 5, 6 --> 6)}
$ Visualisation for sched
$ 2 2 3 4 5 6
$ 3 2 3 4 5 6
$ 4 2 3 4 5 6
$ 5 2 3 4 5 6
$ 6 2 3 4 5 6

